(set-logic ALL)
(declare-const z_random0_0 String)
(declare-const z_random0_1 String)
(declare-const z_random0_2 String)
(declare-const z_random0_3 String)
(declare-const z_random1_0 String)
(declare-const z_random1_1 String)
(declare-fun seed0_x () String)
(declare-fun seed1_x () String)
(assert (and (and (not (= (str.in_re (str.substr z_random0_3 0 (str.indexof z_random0_3 (str.++ "B" "B") (str.len seed0_x))) (re.++ (re.* re.allchar ) re.allchar  (re.* re.allchar ) (str.to_re "B") (re.* re.allchar ) (str.to_re (str.++ "A" (str.++ "A" "A"))) (re.* re.allchar ))) (str.in_re seed0_x (re.++ (re.* re.allchar ) re.allchar  (re.* re.allchar ) re.allchar  (re.* re.allchar ) (str.to_re (str.++ "B" (str.++ "A" (str.substr z_random1_1 0 (str.len (str.++ "A" "A")))))) (re.* re.allchar ))))) (not (= (str.in_re (str.substr z_random1_0 0 (str.len seed0_x)) (re.++ (re.* re.allchar ) re.allchar  (re.* re.allchar ) re.allchar  (re.* re.allchar ) (re.++ (str.to_re (str.++ "A" (str.substr z_random0_2 0 (str.indexof z_random0_2 (str.++ "B" "B") (str.len (str.++ "A" "A")))))) re.allchar ) (re.* re.allchar ))) (str.in_re seed0_x (re.++ (re.* re.allchar ) re.allchar  (re.* re.allchar ) re.allchar  (re.* re.allchar ) (str.to_re (str.++ "A" (str.++ "A" (str.++ "A" "B")))) (re.* re.allchar )))))) (and (not (= (str.in_re seed1_x (re.++ (re.* re.allchar ) re.allchar  (re.* re.allchar ) (str.to_re (str.++ "C" (str.substr z_random0_1 (str.len seed0_x) (str.len (str.++ "C" "B"))))) (re.* re.allchar ) (str.to_re "B") (re.* re.allchar ))) (str.in_re seed1_x (re.++ (re.* re.allchar ) re.allchar  (re.* re.allchar ) (str.to_re "C") (re.* re.allchar ) (str.to_re (str.++ "C" (str.substr z_random0_3 (str.len seed0_x) (str.len (str.++ "B" "B"))))) (re.* re.allchar ))))) (not (= (str.in_re (str.substr z_random1_0 (str.indexof z_random1_0 seed1_x (str.len seed0_x)) (str.len seed1_x)) (re.++ (re.* re.allchar ) re.allchar  (re.* re.allchar ) (str.to_re (str.++ "C" (str.substr z_random1_1 (str.indexof z_random1_1 (str.++ "B" "A") (str.len (str.++ "A" "A"))) (str.len (str.++ "B" "A"))))) (re.* re.allchar ) (str.to_re "C") (re.* re.allchar ))) (str.in_re (str.substr z_random0_0 (str.len (str.++ "A" "A")) (str.len seed1_x)) (re.++ (re.* re.allchar ) re.allchar  (re.* re.allchar ) (str.to_re "C") (re.* re.allchar ) (str.to_re (str.++ "B" (str.++ "A" "C"))) (re.* re.allchar ))))))))
(check-sat)
(exit)